NAME : XML100_2136_18
DIMENSION : 101
NB_CLUSTERS : 4
CLUSTERING_ALG : KMedoids
CLUSTERING_PARAMS : k(3)
CLUSTERS
1 0
2 2 4 6 7 8 10 11 12 15 17 18 21 22 25 29 33 35 36 37 41 42 45 49 50 51 56 58 64 66 67 83 88 91 93 95 97 98
3 3 5 20 23 26 27 28 31 32 34 39 40 47 48 52 53 55 60 62 63 65 68 69 70 71 73 74 75 76 77 81 84 87 90 92 94 96 100
4 1 9 13 14 16 19 24 30 38 43 44 46 54 57 59 61 72 78 79 80 82 85 86 89 99
EOF